\ This file was automatically generated by Zimpl
\ set o := { 1 to 6};
\ set d := { 1 to 5};
\ set od := o * d;
\ param R[o] := <1> 4.20, <2> 4.30, <3> 4.10, <4> 4, <5>5, <6> 5.5;
\ param D[od] :=                   <1,1> 6,    <1,2> 0,     <1,3>6,    <1,4>6,       <1,5>0,                 <2,1> 0,    <2,2> 
\ 6,     <2,3>0,    <2,4>0,       <2,5>6,                 <3,1> 4,    <3,2> 8,     <3,3>4,    <3,4>4,       <3,5>0,            
\      <4,1> 5,    <4,2> 5,     <4,3>5,    <4,4>5,       <4,5>0,                 <5,1> 3,    <5,2> 0,     <5,3>3,    <5,4>0,   
\     <5,5>8,                 <6,1> 0,    <6,2> 0,     <6,3>0,    <6,4>2,       <6,5>6;
\ param MAX_HS_DIA := 14;
\ param MAX_HS_H := 8;
\ param MAX_HS_M := 7;
\ var X[od] >= 0;
\ var CMax >= 0;
\ minimize custo:          sum <ox, dx> in od : X[ox, dx] * R[ox] + CMax * 100;
\ subto c1 :         forall <ox, dx> in od :                 X[ox, dx] <= D[ox, dx];
\ subto c2 :         forall <dx> in d :                 sum <ox> in o : X[ox, dx] >= MAX_HS_DIA;
\ subto c3 :         forall <ox> in {1 to 4} :                 sum <dx> in d : X[ox, dx] <= MAX_HS_H;
\ subto c4 :         forall <ox> in {5 to 6} :                 sum <dx> in d : X[ox, dx] <= MAX_HS_M;
\ subto c5 :         forall <ox> in o :                  sum <dx> in d: X[ox, dx] <= CMax;
\Problem name: file
Minimize
 custo:  +4.2 X#1#1 +4.2 X#1#2 +4.2 X#1#3 +4.2 X#1#4 +4.2 X#1#5 +4.3 X#2#1
  +4.3 X#2#2 +4.3 X#2#3 +4.3 X#2#4 +4.3 X#2#5 +4.1 X#3#1 +4.1 X#3#2
  +4.1 X#3#3 +4.1 X#3#4 +4.1 X#3#5 +4 X#4#1 +4 X#4#2 +4 X#4#3
  +4 X#4#4 +4 X#4#5 +5 X#5#1 +5 X#5#2 +5 X#5#3 +5 X#5#4
  +5 X#5#5 +5.5 X#6#1 +5.5 X#6#2 +5.5 X#6#3 +5.5 X#6#4 +5.5 X#6#5
  +100 CMax
Subject to
 c1_1:
  + X#1#1 <= 6
 c1_2:
  + X#1#2 <= 0
 c1_3:
  + X#1#3 <= 6
 c1_4:
  + X#1#4 <= 6
 c1_5:
  + X#1#5 <= 0
 c1_6:
  + X#2#1 <= 0
 c1_7:
  + X#2#2 <= 6
 c1_8:
  + X#2#3 <= 0
 c1_9:
  + X#2#4 <= 0
 c1_10:
  + X#2#5 <= 6
 c1_11:
  + X#3#1 <= 4
 c1_12:
  + X#3#2 <= 8
 c1_13:
  + X#3#3 <= 4
 c1_14:
  + X#3#4 <= 4
 c1_15:
  + X#3#5 <= 0
 c1_16:
  + X#4#1 <= 5
 c1_17:
  + X#4#2 <= 5
 c1_18:
  + X#4#3 <= 5
 c1_19:
  + X#4#4 <= 5
 c1_20:
  + X#4#5 <= 0
 c1_21:
  + X#5#1 <= 3
 c1_22:
  + X#5#2 <= 0
 c1_23:
  + X#5#3 <= 3
 c1_24:
  + X#5#4 <= 0
 c1_25:
  + X#5#5 <= 8
 c1_26:
  + X#6#1 <= 0
 c1_27:
  + X#6#2 <= 0
 c1_28:
  + X#6#3 <= 0
 c1_29:
  + X#6#4 <= 2
 c1_30:
  + X#6#5 <= 6
 c2_1:
  + X#6#1 + X#5#1 + X#4#1 + X#3#1 + X#2#1 + X#1#1
  >= 14
 c2_2:
  + X#6#2 + X#5#2 + X#4#2 + X#3#2 + X#2#2 + X#1#2
  >= 14
 c2_3:
  + X#6#3 + X#5#3 + X#4#3 + X#3#3 + X#2#3 + X#1#3
  >= 14
 c2_4:
  + X#6#4 + X#5#4 + X#4#4 + X#3#4 + X#2#4 + X#1#4
  >= 14
 c2_5:
  + X#6#5 + X#5#5 + X#4#5 + X#3#5 + X#2#5 + X#1#5
  >= 14
 c3_1:
  + X#1#5 + X#1#4 + X#1#3 + X#1#2 + X#1#1 <= 8
 c3_2:
  + X#2#5 + X#2#4 + X#2#3 + X#2#2 + X#2#1 <= 8
 c3_3:
  + X#3#5 + X#3#4 + X#3#3 + X#3#2 + X#3#1 <= 8
 c3_4:
  + X#4#5 + X#4#4 + X#4#3 + X#4#2 + X#4#1 <= 8
 c4_1:
  + X#5#5 + X#5#4 + X#5#3 + X#5#2 + X#5#1 <= 7
 c4_2:
  + X#6#5 + X#6#4 + X#6#3 + X#6#2 + X#6#1 <= 7
 c5_1:
  - CMax + X#1#5 + X#1#4 + X#1#3 + X#1#2 + X#1#1
  <= 0
 c5_2:
  - CMax + X#2#5 + X#2#4 + X#2#3 + X#2#2 + X#2#1
  <= 0
 c5_3:
  - CMax + X#3#5 + X#3#4 + X#3#3 + X#3#2 + X#3#1
  <= 0
 c5_4:
  - CMax + X#4#5 + X#4#4 + X#4#3 + X#4#2 + X#4#1
  <= 0
 c5_5:
  - CMax + X#5#5 + X#5#4 + X#5#3 + X#5#2 + X#5#1
  <= 0
 c5_6:
  - CMax + X#6#5 + X#6#4 + X#6#3 + X#6#2 + X#6#1
  <= 0
Bounds
 0 <= X#1#1 <= +inf
 0 <= X#1#2 <= +inf
 0 <= X#1#3 <= +inf
 0 <= X#1#4 <= +inf
 0 <= X#1#5 <= +inf
 0 <= X#2#1 <= +inf
 0 <= X#2#2 <= +inf
 0 <= X#2#3 <= +inf
 0 <= X#2#4 <= +inf
 0 <= X#2#5 <= +inf
 0 <= X#3#1 <= +inf
 0 <= X#3#2 <= +inf
 0 <= X#3#3 <= +inf
 0 <= X#3#4 <= +inf
 0 <= X#3#5 <= +inf
 0 <= X#4#1 <= +inf
 0 <= X#4#2 <= +inf
 0 <= X#4#3 <= +inf
 0 <= X#4#4 <= +inf
 0 <= X#4#5 <= +inf
 0 <= X#5#1 <= +inf
 0 <= X#5#2 <= +inf
 0 <= X#5#3 <= +inf
 0 <= X#5#4 <= +inf
 0 <= X#5#5 <= +inf
 0 <= X#6#1 <= +inf
 0 <= X#6#2 <= +inf
 0 <= X#6#3 <= +inf
 0 <= X#6#4 <= +inf
 0 <= X#6#5 <= +inf
 0 <= CMax <= +inf
End
